c Random generated cnf formula, satisfiable: true
p cnf 10 50
-10 -7 4 0
-6 7 2 0
7 -3 1 0
-9 -8 -1 0
3 -10 1 0
-6 -10 8 0
5 9 2 0
-3 -5 -6 0
-8 9 6 0
3 4 8 0
3 7 8 0
6 4 8 0
3 -7 -5 0
-4 -10 6 0
2 -7 5 0
-10 4 -3 0
6 4 -7 0
-5 4 10 0
2 6 -9 0
-9 1 -7 0
-3 -6 -5 0
-7 4 -5 0
-5 -6 -1 0
-1 8 -9 0
-3 8 -2 0
7 -2 -3 0
8 3 2 0
10 7 -6 0
-4 2 -1 0
-7 -9 10 0
10 -5 2 0
6 -2 5 0
-1 -6 -4 0
-6 9 2 0
5 7 1 0
-1 -2 -9 0
8 6 -3 0
-6 5 2 0
3 7 -5 0
-8 1 10 0
7 8 1 0
-6 2 3 0
2 -6 -4 0
6 -9 10 0
-4 -9 -7 0
-4 3 -9 0
-3 2 8 0
-8 -6 5 0
9 -3 5 0
5 1 -10 0
